c This is UnifRandomKSATGenerator
c uniform random 3-SAT generated instance with: 
c clause length: 3 
c number variables: 10 
c number clauses: 43 
c clause to variable ratio: 4.27 
c random number generator name: SHA1PRNG 
c random number generator provider: SUN 
c random number generator seed: 5881676609253841274 
p cnf 10 43
-1 -3 4 0
-1 10 7 0
-2 1 7 0
8 -1 3 0
-3 -6 7 0
9 -3 -4 0
-9 4 6 0
-10 -2 3 0
-4 6 7 0
-2 4 -8 0
-9 -4 6 0
9 4 6 0
-1 -10 3 0
5 -7 6 0
9 -10 3 0
-9 -10 -3 0
1 2 -3 0
-1 -5 -6 0
8 3 -6 0
-1 9 10 0
-2 10 7 0
1 -5 7 0
-3 4 -5 0
-9 -10 6 0
9 4 7 0
9 -3 -5 0
-9 10 -7 0
-1 -2 10 0
-9 2 5 0
8 9 -6 0
-3 6 7 0
10 -5 6 0
-10 -4 5 0
-10 1 -8 0
-2 4 6 0
2 4 7 0
8 -4 -6 0
8 -6 -7 0
-10 -5 -7 0
1 -10 4 0
-9 3 6 0
-1 3 -7 0
-1 3 4 0
